245 5
10 10 10 10 10 

0 0 0 0 0 0 1 2 
0 0 0 0 0 0 2 3 6 
6 0 0 5 0 0 1 4 
7 0 0 8 0 0 1 5 
1 0 0 5 0 0 2 12 7 
1 0 0 9 0 0 1 7 
4 0 0 6 0 0 2 11 8 
4 0 0 5 0 0 1 9 
6 0 0 8 0 0 1 10 
2 0 0 10 0 0 1 13 
10 0 0 9 0 0 1 13 
10 0 0 10 0 0 1 13 
0 0 0 0 0 0 4 14 26 38 50 
0 0 0 0 0 0 2 15 219 
9 0 0 3 0 0 2 20 16 
1 0 0 10 0 0 2 24 17 
9 0 0 4 0 0 1 18 
1 0 0 10 0 0 2 21 19 
2 0 0 7 0 0 1 22 
2 0 0 8 0 0 1 21 
10 0 0 10 0 0 1 23 
2 0 0 7 0 0 1 23 
8 0 0 6 0 0 1 25 
4 0 0 10 0 0 1 25 
0 0 0 0 0 0 1 62 
0 0 0 0 0 0 1 27 
9 0 0 4 0 0 1 28 
1 0 0 5 0 0 2 30 29 
8 0 0 7 0 0 1 31 
3 0 0 10 0 0 1 31 
9 0 0 5 0 0 2 33 32 
3 0 0 10 0 0 2 36 34 
8 0 0 10 0 0 3 36 34 127 
5 0 0 9 0 0 1 35 
4 0 0 5 0 0 1 37 
6 0 0 10 0 0 1 37 
0 0 0 0 0 0 1 62 
0 0 0 0 0 0 3 39 44 46 
10 0 0 0 0 7 1 40 
6 0 0 0 0 4 2 43 41 
6 0 0 0 0 7 1 42 
7 0 0 0 0 8 1 45 
1 0 0 0 0 7 1 45 
1 0 0 0 0 7 1 45 
5 0 0 0 0 10 1 47 
9 0 0 0 0 6 2 47 88 
2 0 0 0 0 9 1 48 
6 0 0 0 0 10 1 49 
0 0 0 0 0 0 1 62 
0 0 0 0 0 0 3 51 55 57 
8 0 0 0 0 1 2 60 52 
2 0 0 0 0 7 1 53 
6 0 0 0 0 10 1 54 
1 0 0 0 0 8 2 56 106 
1 0 0 0 0 8 2 60 59 
1 0 0 0 0 10 1 58 
9 0 0 0 0 10 1 58 
10 0 0 0 0 5 1 59 
4 0 0 0 0 10 1 61 
6 0 0 0 0 6 1 61 
0 0 0 0 0 0 1 62 
0 0 0 0 0 0 5 63 75 87 99 111 
0 0 0 0 0 0 1 64 
5 0 0 0 2 0 2 66 65 
6 0 0 0 9 0 2 70 67 
6 0 0 0 4 0 2 70 68 
7 0 0 0 8 0 1 68 
3 0 0 0 10 0 2 69 227 
3 0 0 0 10 0 2 73 71 
6 0 0 0 10 0 2 73 71 
3 0 0 0 9 0 1 72 
3 0 0 0 7 0 1 74 
7 0 0 0 6 0 1 74 
0 0 0 0 0 0 1 123 
0 0 0 0 0 0 4 76 78 81 83 
2 0 0 0 4 0 2 77 103 
7 0 0 0 7 0 1 79 
3 0 0 0 8 0 1 79 
1 0 0 0 10 0 1 80 
7 0 0 0 9 0 1 82 
4 0 0 0 8 0 1 82 
2 0 0 0 10 0 1 84 
4 0 0 0 10 0 1 84 
2 0 0 0 4 0 1 85 
4 0 0 0 5 0 1 86 
0 0 0 0 0 0 1 123 
0 0 0 0 0 0 1 88 
4 5 0 0 0 0 2 90 89 
5 5 0 0 0 0 1 91 
4 9 0 0 0 0 1 91 
2 8 0 0 0 0 1 92 
2 9 0 0 0 0 2 94 93 
9 8 0 0 0 0 2 97 95 
3 6 0 0 0 0 2 97 95 
2 7 0 0 0 0 2 96 166 
4 8 0 0 0 0 1 98 
7 10 0 0 0 0 1 98 
0 0 0 0 0 0 1 123 
0 0 0 0 0 0 2 100 102 
4 0 0 0 1 0 1 101 
9 0 0 0 8 0 2 103 195 
3 0 0 0 8 0 1 103 
6 0 0 0 7 0 2 105 104 
6 0 0 0 10 0 2 109 106 
5 0 0 0 10 0 2 109 107 
2 0 0 0 5 0 1 107 
7 0 0 0 7 0 1 108 
3 0 0 0 9 0 1 110 
7 0 0 0 10 0 1 110 
0 0 0 0 0 0 1 123 
0 0 0 0 0 0 2 112 117 
6 3 0 0 0 0 2 115 113 
3 9 0 0 0 0 1 114 
8 8 0 0 0 0 2 116 227 
8 3 0 0 0 0 1 116 
2 8 0 0 0 0 1 118 
5 8 0 0 0 0 1 118 
1 9 0 0 0 0 2 121 119 
5 7 0 0 0 0 1 120 
10 10 0 0 0 0 1 122 
4 10 0 0 0 0 1 122 
0 0 0 0 0 0 1 123 
0 0 0 0 0 0 5 124 136 148 160 172 
0 0 0 0 0 0 1 125 
7 0 0 0 0 2 1 126 
8 0 0 0 0 8 1 127 
4 0 0 0 0 8 2 131 128 
10 0 0 0 0 10 2 134 129 
3 0 0 0 0 10 1 130 
2 0 0 0 0 4 2 133 132 
2 0 0 0 0 8 2 132 194 
5 0 0 0 0 8 1 135 
5 0 0 0 0 7 1 135 
8 0 0 0 0 10 1 135 
0 0 0 0 0 0 1 184 
0 0 0 0 0 0 2 137 139 
3 1 0 0 0 0 1 138 
6 8 0 0 0 0 1 140 
8 6 0 0 0 0 1 140 
2 7 0 0 0 0 1 141 
5 10 0 0 0 0 3 146 145 142 
6 10 0 0 0 0 1 143 
1 8 0 0 0 0 1 144 
4 7 0 0 0 0 1 147 
3 8 0 0 0 0 2 147 199 
10 10 0 0 0 0 1 147 
0 0 0 0 0 0 1 184 
0 0 0 0 0 0 3 149 153 158 
9 0 2 0 0 0 1 150 
1 0 10 0 0 0 1 151 
8 0 9 0 0 0 2 157 152 
7 0 2 0 0 0 2 154 214 
1 0 7 0 0 0 2 157 156 
1 0 10 0 0 0 1 155 
1 0 9 0 0 0 1 156 
6 0 7 0 0 0 1 159 
5 0 10 0 0 0 1 159 
9 0 9 0 0 0 1 159 
0 0 0 0 0 0 1 184 
0 0 0 0 0 0 3 161 162 170 
10 0 0 0 4 0 1 163 
3 0 0 0 5 0 1 163 
4 0 0 0 3 0 1 164 
6 0 0 0 8 0 3 169 165 239 
5 0 0 0 9 0 1 166 
3 0 0 0 10 0 1 167 
7 0 0 0 10 0 1 168 
10 0 0 0 8 0 1 171 
1 0 0 0 10 0 1 171 
3 0 0 0 8 0 1 171 
0 0 0 0 0 0 1 184 
0 0 0 0 0 0 2 173 174 
6 0 4 0 0 0 3 181 179 176 
4 0 6 0 0 0 1 175 
7 0 9 0 0 0 2 179 176 
10 0 4 0 0 0 1 177 
9 0 10 0 0 0 1 178 
6 0 10 0 0 0 1 180 
5 0 10 0 0 0 1 180 
4 0 5 0 0 0 1 182 
6 0 9 0 0 0 1 182 
8 0 8 0 0 0 1 183 
0 0 0 0 0 0 1 184 
0 0 0 0 0 0 5 185 197 209 221 233 
0 0 0 0 0 0 2 186 187 
6 0 0 4 0 0 2 190 188 
1 0 0 10 0 0 2 190 189 
2 0 0 3 0 0 1 189 
6 0 0 5 0 0 2 192 191 
1 0 0 10 0 0 2 192 191 
8 0 0 10 0 0 1 193 
1 0 0 10 0 0 1 193 
4 0 0 10 0 0 1 194 
4 0 0 4 0 0 1 195 
6 0 0 9 0 0 1 196 
0 0 0 0 0 0 1 245 
0 0 0 0 0 0 2 198 204 
5 3 0 0 0 0 1 199 
9 4 0 0 0 0 1 200 
4 7 0 0 0 0 2 202 201 
6 9 0 0 0 0 1 203 
10 7 0 0 0 0 1 203 
9 10 0 0 0 0 1 205 
2 10 0 0 0 0 1 205 
10 8 0 0 0 0 2 207 206 
4 10 0 0 0 0 1 208 
8 7 0 0 0 0 1 208 
0 0 0 0 0 0 1 245 
0 0 0 0 0 0 1 210 
9 0 2 0 0 0 1 211 
1 0 3 0 0 0 1 212 
1 0 8 0 0 0 2 214 213 
2 0 10 0 0 0 1 215 
8 0 6 0 0 0 1 215 
3 0 9 0 0 0 2 217 216 
9 0 10 0 0 0 2 219 218 
7 0 9 0 0 0 2 219 218 
8 0 8 0 0 0 1 220 
8 0 10 0 0 0 1 220 
0 0 0 0 0 0 1 245 
0 0 0 0 0 0 1 222 
9 0 3 0 0 0 2 227 223 
5 0 10 0 0 0 1 224 
1 0 5 0 0 0 3 231 230 225 
2 0 5 0 0 0 1 226 
2 0 10 0 0 0 1 228 
1 0 8 0 0 0 1 228 
7 0 10 0 0 0 1 229 
2 0 9 0 0 0 1 232 
4 0 10 0 0 0 1 232 
4 0 5 0 0 0 1 232 
0 0 0 0 0 0 1 245 
0 0 0 0 0 0 1 234 
7 0 0 3 0 0 2 243 235 
2 0 0 8 0 0 2 240 236 
10 0 0 10 0 0 1 237 
6 0 0 9 0 0 2 242 238 
2 0 0 8 0 0 1 239 
9 0 0 9 0 0 1 241 
9 0 0 7 0 0 1 241 
5 0 0 6 0 0 1 244 
6 0 0 9 0 0 1 244 
5 0 0 6 0 0 1 244 
0 0 0 0 0 0 1 245 
0 0 0 0 0 0 0 
